100
1000
167
167
166
166
164
164
164
163
162
162
162
162
162
161
161
160
159
159
158
158
158
158
157
157
154
154
154
153
153
153
153
152
152
151
151
151
151
151
151
151
150
150
149
148
148
147
147
146
145
144
143
143
143
143
143
143
142
141
141
139
139
137
136
136
135
135
135
133
133
132
132
131
130
128
128
128
127
127
126
125
125
124
124
123
123
122
121
121
121
120
120
120
120
119
119
118
118
117
116
115
